5
17
0 48 49 24 8 38 71 57 9 37 64 65 13 66 75 5 72
15
0 2 43 31 30 54 17 23 55 22 42 40 41 63 21
17
0 20 68 35 46 67 3 51 33 45 25 11 39 16 50 15 62
16
0 1 29 28 12 56 14 19 69 59 70 36 4 47 60 61
15
0 27 73 44 26 53 18 58 10 52 34 6 7 74 32
